# initialization
System = fcc Si 
ISTART = 0 # for new calculation
ICHARG = 2

# electronic optimization
ENCUT  = 250 # energy cut off 
ISMEAR = -5 # Tetrahedron method
LORBIT = 11 
EDIFF = 1E-06 # electronic convergence treshold, the lower the more precise results

# Ionic relaxation 
IBRION = -1 
NSW = 0 # NO ionic movement 
