fcc Si:                                 
   3.90000000000000     
     0.7007505017695931    0.7007505017695931    0.0000000000000000
     0.0000000000000000    0.7007505017695931    0.7007505017695931
     0.7007505017695931    0.0000000000000000    0.7007505017695931
   Si
     2
Direct
 -0.0000000000000000 -0.0000000000000000 -0.0000000000000000
  0.2500000000000000  0.2500000000000000  0.2500000000000000
 
  0.00000000E+00  0.00000000E+00  0.00000000E+00
  0.00000000E+00  0.00000000E+00  0.00000000E+00
